(set-info :smt-lib-version 2.6)
(set-logic QF_LRA)
(set-info :source |
Fully parameterized specification and verification of a synchronizer   
circuit modeling metastability at various levels of refinement.     
A paper describing this specification, to be published in Designing     
Correct Circuits (DCC), 2006, is available from the authors.            

Geoffrey Brown, Indiana University <geobrown@cs.indiana.edu>
Lee Pike, Galois Connections, Inc. <leepike@galois.com>

Translated into CVC format by Leonardo de Moura.

This benchmark was automatically translated into SMT-LIB format from
CVC format using CVC Lite

|)
(set-info :category "industrial")
(set-info :status unsat)
(declare-fun x_0 () Bool)
(declare-fun x_1 () Bool)
(declare-fun x_2 () Real)
(declare-fun x_3 () Bool)
(declare-fun x_4 () Bool)
(declare-fun x_5 () Bool)
(declare-fun x_6 () Real)
(declare-fun x_7 () Bool)
(declare-fun x_8 () Real)
(declare-fun x_9 () Real)
(declare-fun x_10 () Real)
(declare-fun x_11 () Real)
(declare-fun x_12 () Real)
(declare-fun x_13 () Bool)
(declare-fun x_14 () Real)
(declare-fun x_15 () Real)
(declare-fun x_16 () Real)
(declare-fun x_17 () Real)
(declare-fun x_18 () Real)
(declare-fun x_19 () Real)
(declare-fun x_20 () Bool)
(declare-fun x_21 () Bool)
(declare-fun x_22 () Bool)
(declare-fun x_23 () Bool)
(declare-fun x_24 () Real)
(declare-fun x_25 () Bool)
(declare-fun x_26 () Real)
(declare-fun x_27 () Real)
(declare-fun x_28 () Real)
(declare-fun x_29 () Real)
(declare-fun x_30 () Real)
(declare-fun x_31 () Real)
(declare-fun x_32 () Real)
(declare-fun x_33 () Real)
(declare-fun x_34 () Real)
(declare-fun x_35 () Real)
(declare-fun x_36 () Real)
(declare-fun x_37 () Bool)
(declare-fun x_38 () Real)
(declare-fun x_39 () Real)
(declare-fun x_40 () Bool)
(declare-fun x_41 () Bool)
(declare-fun x_42 () Bool)
(declare-fun x_43 () Bool)
(declare-fun x_44 () Real)
(declare-fun x_45 () Bool)
(declare-fun x_46 () Real)
(declare-fun x_47 () Real)
(declare-fun x_48 () Real)
(declare-fun x_49 () Real)
(declare-fun x_50 () Real)
(declare-fun x_51 () Real)
(declare-fun x_52 () Real)
(declare-fun x_53 () Real)
(declare-fun x_54 () Real)
(declare-fun x_55 () Bool)
(declare-fun x_56 () Real)
(declare-fun x_57 () Real)
(declare-fun x_58 () Bool)
(declare-fun x_59 () Bool)
(declare-fun x_60 () Bool)
(declare-fun x_61 () Bool)
(declare-fun x_62 () Real)
(declare-fun x_63 () Bool)
(declare-fun x_64 () Real)
(declare-fun x_65 () Real)
(declare-fun x_66 () Real)
(declare-fun x_67 () Real)
(declare-fun x_68 () Real)
(declare-fun x_69 () Real)
(declare-fun x_70 () Real)
(declare-fun x_71 () Real)
(declare-fun x_72 () Real)
(declare-fun x_73 () Bool)
(declare-fun x_74 () Real)
(declare-fun x_75 () Real)
(declare-fun x_76 () Bool)
(declare-fun x_77 () Bool)
(declare-fun x_78 () Bool)
(declare-fun x_79 () Bool)
(declare-fun x_80 () Real)
(declare-fun x_81 () Bool)
(declare-fun x_82 () Real)
(declare-fun x_83 () Real)
(declare-fun x_84 () Real)
(declare-fun x_85 () Real)
(declare-fun x_86 () Real)
(declare-fun x_87 () Real)
(declare-fun x_88 () Real)
(declare-fun x_89 () Real)
(declare-fun x_90 () Real)
(declare-fun x_91 () Bool)
(declare-fun x_92 () Real)
(declare-fun x_93 () Real)
(declare-fun x_94 () Bool)
(declare-fun x_95 () Bool)
(declare-fun x_96 () Bool)
(declare-fun x_97 () Bool)
(declare-fun x_98 () Real)
(declare-fun x_99 () Bool)
(declare-fun x_100 () Real)
(declare-fun x_101 () Real)
(declare-fun x_102 () Real)
(declare-fun x_103 () Real)
(declare-fun x_104 () Real)
(declare-fun x_105 () Real)
(declare-fun x_106 () Real)
(declare-fun x_107 () Real)
(declare-fun x_108 () Real)
(declare-fun x_109 () Bool)
(declare-fun x_110 () Real)
(declare-fun x_111 () Real)
(declare-fun x_112 () Bool)
(declare-fun x_113 () Bool)
(declare-fun x_114 () Bool)
(declare-fun x_115 () Bool)
(declare-fun x_116 () Real)
(declare-fun x_117 () Bool)
(declare-fun x_118 () Real)
(declare-fun x_119 () Real)
(declare-fun x_120 () Real)
(declare-fun x_121 () Real)
(declare-fun x_122 () Real)
(declare-fun x_123 () Real)
(declare-fun x_124 () Real)
(declare-fun x_125 () Real)
(declare-fun x_126 () Real)
(declare-fun x_127 () Bool)
(declare-fun x_128 () Real)
(declare-fun x_129 () Real)
(declare-fun x_130 () Bool)
(declare-fun x_131 () Bool)
(declare-fun x_132 () Bool)
(declare-fun x_133 () Bool)
(declare-fun x_134 () Real)
(declare-fun x_135 () Bool)
(declare-fun x_136 () Real)
(declare-fun x_137 () Real)
(declare-fun x_138 () Real)
(declare-fun x_139 () Real)
(declare-fun x_140 () Real)
(declare-fun x_141 () Real)
(declare-fun x_142 () Real)
(declare-fun x_143 () Real)
(declare-fun x_144 () Real)
(declare-fun x_145 () Bool)
(declare-fun x_146 () Real)
(declare-fun x_147 () Real)
(declare-fun x_148 () Bool)
(declare-fun x_149 () Bool)
(declare-fun x_150 () Bool)
(declare-fun x_151 () Bool)
(declare-fun x_152 () Real)
(declare-fun x_153 () Bool)
(declare-fun x_154 () Real)
(declare-fun x_155 () Real)
(declare-fun x_156 () Real)
(declare-fun x_157 () Real)
(declare-fun x_158 () Real)
(declare-fun x_159 () Real)
(declare-fun x_160 () Real)
(declare-fun x_161 () Real)
(declare-fun x_162 () Real)
(declare-fun x_163 () Bool)
(declare-fun x_164 () Real)
(declare-fun x_165 () Real)
(declare-fun x_166 () Bool)
(declare-fun x_167 () Bool)
(declare-fun x_168 () Bool)
(declare-fun x_169 () Bool)
(declare-fun x_170 () Real)
(declare-fun x_171 () Bool)
(declare-fun x_172 () Real)
(declare-fun x_173 () Real)
(declare-fun x_174 () Real)
(declare-fun x_175 () Real)
(declare-fun x_176 () Real)
(declare-fun x_177 () Real)
(declare-fun x_178 () Real)
(declare-fun x_179 () Real)
(declare-fun x_180 () Real)
(declare-fun x_181 () Bool)
(declare-fun x_182 () Real)
(declare-fun x_183 () Real)
(declare-fun x_184 () Bool)
(declare-fun x_185 () Bool)
(declare-fun x_186 () Bool)
(declare-fun x_187 () Bool)
(declare-fun x_188 () Real)
(declare-fun x_189 () Bool)
(declare-fun x_190 () Real)
(declare-fun x_191 () Real)
(declare-fun x_192 () Real)
(declare-fun x_193 () Real)
(declare-fun x_194 () Real)
(declare-fun x_195 () Real)
(declare-fun x_196 () Real)
(declare-fun x_197 () Real)
(declare-fun x_198 () Real)
(declare-fun x_199 () Bool)
(declare-fun x_200 () Real)
(declare-fun x_201 () Real)
(declare-fun x_202 () Bool)
(declare-fun x_203 () Bool)
(declare-fun x_204 () Bool)
(declare-fun x_205 () Bool)
(declare-fun x_206 () Real)
(declare-fun x_207 () Bool)
(declare-fun x_208 () Real)
(declare-fun x_209 () Real)
(declare-fun x_210 () Real)
(declare-fun x_211 () Real)
(declare-fun x_212 () Real)
(declare-fun x_213 () Real)
(declare-fun x_214 () Real)
(declare-fun x_215 () Real)
(declare-fun x_216 () Real)
(declare-fun x_217 () Bool)
(declare-fun x_218 () Real)
(declare-fun x_219 () Real)
(declare-fun x_220 () Bool)
(declare-fun x_221 () Bool)
(declare-fun x_222 () Bool)
(declare-fun x_223 () Bool)
(declare-fun x_224 () Real)
(declare-fun x_225 () Bool)
(declare-fun x_226 () Real)
(declare-fun x_227 () Real)
(declare-fun x_228 () Real)
(declare-fun x_229 () Real)
(declare-fun x_230 () Real)
(declare-fun x_231 () Real)
(declare-fun x_232 () Real)
(declare-fun x_233 () Real)
(declare-fun x_234 () Real)
(declare-fun x_235 () Bool)
(declare-fun x_236 () Real)
(declare-fun x_237 () Real)
(declare-fun x_238 () Bool)
(declare-fun x_239 () Bool)
(declare-fun x_240 () Bool)
(declare-fun x_241 () Bool)
(declare-fun x_242 () Real)
(declare-fun x_243 () Bool)
(declare-fun x_244 () Real)
(declare-fun x_245 () Real)
(declare-fun x_246 () Real)
(declare-fun x_247 () Real)
(declare-fun x_248 () Real)
(declare-fun x_249 () Real)
(declare-fun x_250 () Real)
(declare-fun x_251 () Real)
(declare-fun x_252 () Real)
(declare-fun x_253 () Bool)
(declare-fun x_254 () Real)
(declare-fun x_255 () Real)
(declare-fun x_256 () Bool)
(declare-fun x_257 () Bool)
(declare-fun x_258 () Bool)
(declare-fun x_259 () Bool)
(declare-fun x_260 () Real)
(declare-fun x_261 () Bool)
(declare-fun x_262 () Real)
(declare-fun x_263 () Real)
(declare-fun x_264 () Real)
(declare-fun x_265 () Real)
(assert (let ((?v_177 (= x_6 x_9)) (?v_174 (= x_2 x_11))) (let ((?v_179 (not ?v_174)) (?v_170 (= x_13 x_7)) (?v_171 (= x_14 x_15)) (?v_175 (ite (<= x_6 x_2) x_6 x_2)) (?v_169 (ite (<= x_2 x_6) x_2 x_6)) (?v_162 (= x_32 x_8)) (?v_163 (= x_9 x_33)) (?v_164 (= x_34 x_10)) (?v_160 (= x_11 x_35))) (let ((?v_165 (not ?v_160)) (?v_168 (= x_36 x_12)) (?v_157 (= x_37 x_13)) (?v_158 (= x_38 x_14)) (?v_161 (ite (<= x_9 x_11) x_9 x_11)) (?v_156 (ite (<= x_11 x_9) x_11 x_9)) (?v_149 (= x_50 x_32)) (?v_150 (= x_33 x_51)) (?v_151 (= x_52 x_34)) (?v_147 (= x_35 x_53))) (let ((?v_152 (not ?v_147)) (?v_155 (= x_54 x_36)) (?v_144 (= x_55 x_37)) (?v_145 (= x_56 x_38)) (?v_148 (ite (<= x_33 x_35) x_33 x_35)) (?v_143 (ite (<= x_35 x_33) x_35 x_33)) (?v_136 (= x_68 x_50)) (?v_137 (= x_51 x_69)) (?v_138 (= x_70 x_52)) (?v_134 (= x_53 x_71))) (let ((?v_139 (not ?v_134)) (?v_142 (= x_72 x_54)) (?v_131 (= x_73 x_55)) (?v_132 (= x_74 x_56)) (?v_135 (ite (<= x_51 x_53) x_51 x_53)) (?v_130 (ite (<= x_53 x_51) x_53 x_51)) (?v_123 (= x_86 x_68)) (?v_124 (= x_69 x_87)) (?v_125 (= x_88 x_70)) (?v_121 (= x_71 x_89))) (let ((?v_126 (not ?v_121)) (?v_129 (= x_90 x_72)) (?v_118 (= x_91 x_73)) (?v_119 (= x_92 x_74)) (?v_122 (ite (<= x_69 x_71) x_69 x_71)) (?v_117 (ite (<= x_71 x_69) x_71 x_69)) (?v_110 (= x_104 x_86)) (?v_111 (= x_87 x_105)) (?v_112 (= x_106 x_88)) (?v_108 (= x_89 x_107))) (let ((?v_113 (not ?v_108)) (?v_116 (= x_108 x_90)) (?v_105 (= x_109 x_91)) (?v_106 (= x_110 x_92)) (?v_109 (ite (<= x_87 x_89) x_87 x_89)) (?v_104 (ite (<= x_89 x_87) x_89 x_87)) (?v_97 (= x_122 x_104)) (?v_98 (= x_105 x_123)) (?v_99 (= x_124 x_106)) (?v_95 (= x_107 x_125))) (let ((?v_100 (not ?v_95)) (?v_103 (= x_126 x_108)) (?v_92 (= x_127 x_109)) (?v_93 (= x_128 x_110)) (?v_96 (ite (<= x_105 x_107) x_105 x_107)) (?v_91 (ite (<= x_107 x_105) x_107 x_105)) (?v_84 (= x_140 x_122)) (?v_85 (= x_123 x_141)) (?v_86 (= x_142 x_124)) (?v_82 (= x_125 x_143))) (let ((?v_87 (not ?v_82)) (?v_90 (= x_144 x_126)) (?v_79 (= x_145 x_127)) (?v_80 (= x_146 x_128)) (?v_83 (ite (<= x_123 x_125) x_123 x_125)) (?v_78 (ite (<= x_125 x_123) x_125 x_123)) (?v_71 (= x_158 x_140)) (?v_72 (= x_141 x_159)) (?v_73 (= x_160 x_142)) (?v_69 (= x_143 x_161))) (let ((?v_74 (not ?v_69)) (?v_77 (= x_162 x_144)) (?v_66 (= x_163 x_145)) (?v_67 (= x_164 x_146)) (?v_70 (ite (<= x_141 x_143) x_141 x_143)) (?v_65 (ite (<= x_143 x_141) x_143 x_141)) (?v_58 (= x_176 x_158)) (?v_59 (= x_159 x_177)) (?v_60 (= x_178 x_160)) (?v_56 (= x_161 x_179))) (let ((?v_61 (not ?v_56)) (?v_64 (= x_180 x_162)) (?v_53 (= x_181 x_163)) (?v_54 (= x_182 x_164)) (?v_57 (ite (<= x_159 x_161) x_159 x_161)) (?v_52 (ite (<= x_161 x_159) x_161 x_159)) (?v_45 (= x_194 x_176)) (?v_46 (= x_177 x_195)) (?v_47 (= x_196 x_178)) (?v_43 (= x_179 x_197))) (let ((?v_48 (not ?v_43)) (?v_51 (= x_198 x_180)) (?v_40 (= x_199 x_181)) (?v_41 (= x_200 x_182)) (?v_44 (ite (<= x_177 x_179) x_177 x_179)) (?v_39 (ite (<= x_179 x_177) x_179 x_177)) (?v_32 (= x_212 x_194)) (?v_33 (= x_195 x_213)) (?v_34 (= x_214 x_196)) (?v_30 (= x_197 x_215))) (let ((?v_35 (not ?v_30)) (?v_38 (= x_216 x_198)) (?v_27 (= x_217 x_199)) (?v_28 (= x_218 x_200)) (?v_31 (ite (<= x_195 x_197) x_195 x_197)) (?v_26 (ite (<= x_197 x_195) x_197 x_195)) (?v_19 (= x_230 x_212)) (?v_20 (= x_213 x_231)) (?v_21 (= x_232 x_214)) (?v_17 (= x_215 x_233))) (let ((?v_22 (not ?v_17)) (?v_25 (= x_234 x_216)) (?v_14 (= x_235 x_217)) (?v_15 (= x_236 x_218)) (?v_18 (ite (<= x_213 x_215) x_213 x_215)) (?v_13 (ite (<= x_215 x_213) x_215 x_213)) (?v_6 (= x_248 x_230)) (?v_7 (= x_231 x_249)) (?v_8 (= x_250 x_232)) (?v_4 (= x_233 x_251))) (let ((?v_9 (not ?v_4)) (?v_12 (= x_252 x_234)) (?v_1 (= x_253 x_235)) (?v_2 (= x_254 x_236)) (?v_5 (ite (<= x_231 x_233) x_231 x_233)) (?v_0 (ite (<= x_233 x_231) x_233 x_231)) (?v_172 (not x_7)) (?v_3 (= x_257 x_239)) (?v_11 (= x_236 x_254)) (?v_16 (= x_239 x_221)) (?v_24 (= x_218 x_236)) (?v_29 (= x_221 x_203)) (?v_37 (= x_200 x_218)) (?v_42 (= x_203 x_185)) (?v_50 (= x_182 x_200)) (?v_55 (= x_185 x_167)) (?v_63 (= x_164 x_182)) (?v_68 (= x_167 x_149)) (?v_76 (= x_146 x_164)) (?v_81 (= x_149 x_131)) (?v_89 (= x_128 x_146)) (?v_94 (= x_131 x_113)) (?v_102 (= x_110 x_128)) (?v_107 (= x_113 x_95)) (?v_115 (= x_92 x_110)) (?v_120 (= x_95 x_77)) (?v_128 (= x_74 x_92)) (?v_133 (= x_77 x_59)) (?v_141 (= x_56 x_74)) (?v_146 (= x_59 x_41)) (?v_154 (= x_38 x_56)) (?v_159 (= x_41 x_21)) (?v_167 (= x_14 x_38)) (?v_173 (= x_21 x_3)) (?v_182 (= x_15 x_14)) (?v_180 (not (>= ?v_175 0))) (?v_176 (= x_8 0)) (?v_178 (= x_10 0)) (?v_183 (= x_12 0))) (let ((?v_10 (+ ?v_5 x_18)) (?v_23 (+ ?v_18 x_18)) (?v_36 (+ ?v_31 x_18)) (?v_49 (+ ?v_44 x_18)) (?v_62 (+ ?v_57 x_18)) (?v_75 (+ ?v_70 x_18)) (?v_88 (+ ?v_83 x_18)) (?v_101 (+ ?v_96 x_18)) (?v_114 (+ ?v_109 x_18)) (?v_127 (+ ?v_122 x_18)) (?v_140 (+ ?v_135 x_18)) (?v_153 (+ ?v_148 x_18)) (?v_166 (+ ?v_161 x_18)) (?v_181 (+ ?v_175 x_18))) (and (and (and (and (and (and (and (and (and (and (and (and (and (and (and (and (and (and (and (and (and (and (and (and (and (and (and (and (and (and (and (and (and (and (and (and (and (and (and (and (and (and (and (and (and (and (and (and (and (and (and (and (and (and (and (and (and (and (and (and (and (and (and (and (and (and (and (and (and (and (and (and (> x_16 0) (> x_17 0)) (>= x_18 0)) (< x_18 x_16)) (< x_18 x_17)) (>= x_30 0)) (< x_30 x_16)) (< x_30 x_17)) (not x_0)) (not x_1)) (>= x_2 0)) (not x_3)) (not x_4)) (not x_5)) (>= x_6 0)) ?v_172) (or (and (and (and (and (and (and (and (and (and (= x_255 0) (= x_256 x_243)) (= ?v_0 x_233)) (<= (+ ?v_0 x_16) x_251)) (or ?v_3 (= x_257 x_238))) (= x_258 x_240)) (= x_259 x_241)) (= x_249 x_231)) ?v_1) ?v_2) (and (and (and (and (and (and (and (and (and (= x_255 1) (= x_259 x_240)) (= ?v_0 x_231)) (<= (+ ?v_0 x_17) x_249)) (or (and (and (= x_260 0) ?v_1) ?v_2) (and (and (= x_260 1) (= x_235 x_241)) (= x_253 (not x_235))))) (= x_261 x_243)) (= x_256 x_238)) (= x_262 x_244)) (= x_251 x_233)) ?v_3))) (or (or (and (and (and (= x_263 0) ?v_9) (or (not (<= x_230 ?v_5)) (= x_261 x_235))) ?v_6) (and (and (and (= x_263 1) ?v_4) (xor x_235 x_253)) (= x_248 ?v_10))) (and (and (and (= x_263 2) ?v_4) (= x_235 x_253)) ?v_6))) (or (or (and (and (and (= x_264 0) (not ?v_7)) (or (not (<= x_232 ?v_0)) (= x_258 x_239))) ?v_8) (and (and (and (= x_264 1) ?v_7) (xor x_239 x_257)) (= x_250 (+ ?v_0 x_30)))) (and (and (and (= x_264 2) ?v_7) (= x_239 x_257)) ?v_8))) (or (or (and (and (and (= x_265 0) ?v_9) (or (not (<= x_234 ?v_5)) (= x_262 x_236))) ?v_12) (and (and (and (= x_265 1) ?v_4) (not ?v_11)) (= x_252 ?v_10))) (and (and (and (= x_265 2) ?v_4) ?v_11) ?v_12))) (or (and (and (and (and (and (and (and (and (and (= x_237 0) (= x_238 x_225)) (= ?v_13 x_215)) (<= (+ ?v_13 x_16) x_233)) (or ?v_16 (= x_239 x_220))) (= x_240 x_222)) (= x_241 x_223)) (= x_231 x_213)) ?v_14) ?v_15) (and (and (and (and (and (and (and (and (and (= x_237 1) (= x_241 x_222)) (= ?v_13 x_213)) (<= (+ ?v_13 x_17) x_231)) (or (and (and (= x_242 0) ?v_14) ?v_15) (and (and (= x_242 1) (= x_217 x_223)) (= x_235 (not x_217))))) (= x_243 x_225)) (= x_238 x_220)) (= x_244 x_226)) (= x_233 x_215)) ?v_16))) (or (or (and (and (and (= x_245 0) ?v_22) (or (not (<= x_212 ?v_18)) (= x_243 x_217))) ?v_19) (and (and (and (= x_245 1) ?v_17) (xor x_217 x_235)) (= x_230 ?v_23))) (and (and (and (= x_245 2) ?v_17) (= x_217 x_235)) ?v_19))) (or (or (and (and (and (= x_246 0) (not ?v_20)) (or (not (<= x_214 ?v_13)) (= x_240 x_221))) ?v_21) (and (and (and (= x_246 1) ?v_20) (xor x_221 x_239)) (= x_232 (+ ?v_13 x_30)))) (and (and (and (= x_246 2) ?v_20) (= x_221 x_239)) ?v_21))) (or (or (and (and (and (= x_247 0) ?v_22) (or (not (<= x_216 ?v_18)) (= x_244 x_218))) ?v_25) (and (and (and (= x_247 1) ?v_17) (not ?v_24)) (= x_234 ?v_23))) (and (and (and (= x_247 2) ?v_17) ?v_24) ?v_25))) (or (and (and (and (and (and (and (and (and (and (= x_219 0) (= x_220 x_207)) (= ?v_26 x_197)) (<= (+ ?v_26 x_16) x_215)) (or ?v_29 (= x_221 x_202))) (= x_222 x_204)) (= x_223 x_205)) (= x_213 x_195)) ?v_27) ?v_28) (and (and (and (and (and (and (and (and (and (= x_219 1) (= x_223 x_204)) (= ?v_26 x_195)) (<= (+ ?v_26 x_17) x_213)) (or (and (and (= x_224 0) ?v_27) ?v_28) (and (and (= x_224 1) (= x_199 x_205)) (= x_217 (not x_199))))) (= x_225 x_207)) (= x_220 x_202)) (= x_226 x_208)) (= x_215 x_197)) ?v_29))) (or (or (and (and (and (= x_227 0) ?v_35) (or (not (<= x_194 ?v_31)) (= x_225 x_199))) ?v_32) (and (and (and (= x_227 1) ?v_30) (xor x_199 x_217)) (= x_212 ?v_36))) (and (and (and (= x_227 2) ?v_30) (= x_199 x_217)) ?v_32))) (or (or (and (and (and (= x_228 0) (not ?v_33)) (or (not (<= x_196 ?v_26)) (= x_222 x_203))) ?v_34) (and (and (and (= x_228 1) ?v_33) (xor x_203 x_221)) (= x_214 (+ ?v_26 x_30)))) (and (and (and (= x_228 2) ?v_33) (= x_203 x_221)) ?v_34))) (or (or (and (and (and (= x_229 0) ?v_35) (or (not (<= x_198 ?v_31)) (= x_226 x_200))) ?v_38) (and (and (and (= x_229 1) ?v_30) (not ?v_37)) (= x_216 ?v_36))) (and (and (and (= x_229 2) ?v_30) ?v_37) ?v_38))) (or (and (and (and (and (and (and (and (and (and (= x_201 0) (= x_202 x_189)) (= ?v_39 x_179)) (<= (+ ?v_39 x_16) x_197)) (or ?v_42 (= x_203 x_184))) (= x_204 x_186)) (= x_205 x_187)) (= x_195 x_177)) ?v_40) ?v_41) (and (and (and (and (and (and (and (and (and (= x_201 1) (= x_205 x_186)) (= ?v_39 x_177)) (<= (+ ?v_39 x_17) x_195)) (or (and (and (= x_206 0) ?v_40) ?v_41) (and (and (= x_206 1) (= x_181 x_187)) (= x_199 (not x_181))))) (= x_207 x_189)) (= x_202 x_184)) (= x_208 x_190)) (= x_197 x_179)) ?v_42))) (or (or (and (and (and (= x_209 0) ?v_48) (or (not (<= x_176 ?v_44)) (= x_207 x_181))) ?v_45) (and (and (and (= x_209 1) ?v_43) (xor x_181 x_199)) (= x_194 ?v_49))) (and (and (and (= x_209 2) ?v_43) (= x_181 x_199)) ?v_45))) (or (or (and (and (and (= x_210 0) (not ?v_46)) (or (not (<= x_178 ?v_39)) (= x_204 x_185))) ?v_47) (and (and (and (= x_210 1) ?v_46) (xor x_185 x_203)) (= x_196 (+ ?v_39 x_30)))) (and (and (and (= x_210 2) ?v_46) (= x_185 x_203)) ?v_47))) (or (or (and (and (and (= x_211 0) ?v_48) (or (not (<= x_180 ?v_44)) (= x_208 x_182))) ?v_51) (and (and (and (= x_211 1) ?v_43) (not ?v_50)) (= x_198 ?v_49))) (and (and (and (= x_211 2) ?v_43) ?v_50) ?v_51))) (or (and (and (and (and (and (and (and (and (and (= x_183 0) (= x_184 x_171)) (= ?v_52 x_161)) (<= (+ ?v_52 x_16) x_179)) (or ?v_55 (= x_185 x_166))) (= x_186 x_168)) (= x_187 x_169)) (= x_177 x_159)) ?v_53) ?v_54) (and (and (and (and (and (and (and (and (and (= x_183 1) (= x_187 x_168)) (= ?v_52 x_159)) (<= (+ ?v_52 x_17) x_177)) (or (and (and (= x_188 0) ?v_53) ?v_54) (and (and (= x_188 1) (= x_163 x_169)) (= x_181 (not x_163))))) (= x_189 x_171)) (= x_184 x_166)) (= x_190 x_172)) (= x_179 x_161)) ?v_55))) (or (or (and (and (and (= x_191 0) ?v_61) (or (not (<= x_158 ?v_57)) (= x_189 x_163))) ?v_58) (and (and (and (= x_191 1) ?v_56) (xor x_163 x_181)) (= x_176 ?v_62))) (and (and (and (= x_191 2) ?v_56) (= x_163 x_181)) ?v_58))) (or (or (and (and (and (= x_192 0) (not ?v_59)) (or (not (<= x_160 ?v_52)) (= x_186 x_167))) ?v_60) (and (and (and (= x_192 1) ?v_59) (xor x_167 x_185)) (= x_178 (+ ?v_52 x_30)))) (and (and (and (= x_192 2) ?v_59) (= x_167 x_185)) ?v_60))) (or (or (and (and (and (= x_193 0) ?v_61) (or (not (<= x_162 ?v_57)) (= x_190 x_164))) ?v_64) (and (and (and (= x_193 1) ?v_56) (not ?v_63)) (= x_180 ?v_62))) (and (and (and (= x_193 2) ?v_56) ?v_63) ?v_64))) (or (and (and (and (and (and (and (and (and (and (= x_165 0) (= x_166 x_153)) (= ?v_65 x_143)) (<= (+ ?v_65 x_16) x_161)) (or ?v_68 (= x_167 x_148))) (= x_168 x_150)) (= x_169 x_151)) (= x_159 x_141)) ?v_66) ?v_67) (and (and (and (and (and (and (and (and (and (= x_165 1) (= x_169 x_150)) (= ?v_65 x_141)) (<= (+ ?v_65 x_17) x_159)) (or (and (and (= x_170 0) ?v_66) ?v_67) (and (and (= x_170 1) (= x_145 x_151)) (= x_163 (not x_145))))) (= x_171 x_153)) (= x_166 x_148)) (= x_172 x_154)) (= x_161 x_143)) ?v_68))) (or (or (and (and (and (= x_173 0) ?v_74) (or (not (<= x_140 ?v_70)) (= x_171 x_145))) ?v_71) (and (and (and (= x_173 1) ?v_69) (xor x_145 x_163)) (= x_158 ?v_75))) (and (and (and (= x_173 2) ?v_69) (= x_145 x_163)) ?v_71))) (or (or (and (and (and (= x_174 0) (not ?v_72)) (or (not (<= x_142 ?v_65)) (= x_168 x_149))) ?v_73) (and (and (and (= x_174 1) ?v_72) (xor x_149 x_167)) (= x_160 (+ ?v_65 x_30)))) (and (and (and (= x_174 2) ?v_72) (= x_149 x_167)) ?v_73))) (or (or (and (and (and (= x_175 0) ?v_74) (or (not (<= x_144 ?v_70)) (= x_172 x_146))) ?v_77) (and (and (and (= x_175 1) ?v_69) (not ?v_76)) (= x_162 ?v_75))) (and (and (and (= x_175 2) ?v_69) ?v_76) ?v_77))) (or (and (and (and (and (and (and (and (and (and (= x_147 0) (= x_148 x_135)) (= ?v_78 x_125)) (<= (+ ?v_78 x_16) x_143)) (or ?v_81 (= x_149 x_130))) (= x_150 x_132)) (= x_151 x_133)) (= x_141 x_123)) ?v_79) ?v_80) (and (and (and (and (and (and (and (and (and (= x_147 1) (= x_151 x_132)) (= ?v_78 x_123)) (<= (+ ?v_78 x_17) x_141)) (or (and (and (= x_152 0) ?v_79) ?v_80) (and (and (= x_152 1) (= x_127 x_133)) (= x_145 (not x_127))))) (= x_153 x_135)) (= x_148 x_130)) (= x_154 x_136)) (= x_143 x_125)) ?v_81))) (or (or (and (and (and (= x_155 0) ?v_87) (or (not (<= x_122 ?v_83)) (= x_153 x_127))) ?v_84) (and (and (and (= x_155 1) ?v_82) (xor x_127 x_145)) (= x_140 ?v_88))) (and (and (and (= x_155 2) ?v_82) (= x_127 x_145)) ?v_84))) (or (or (and (and (and (= x_156 0) (not ?v_85)) (or (not (<= x_124 ?v_78)) (= x_150 x_131))) ?v_86) (and (and (and (= x_156 1) ?v_85) (xor x_131 x_149)) (= x_142 (+ ?v_78 x_30)))) (and (and (and (= x_156 2) ?v_85) (= x_131 x_149)) ?v_86))) (or (or (and (and (and (= x_157 0) ?v_87) (or (not (<= x_126 ?v_83)) (= x_154 x_128))) ?v_90) (and (and (and (= x_157 1) ?v_82) (not ?v_89)) (= x_144 ?v_88))) (and (and (and (= x_157 2) ?v_82) ?v_89) ?v_90))) (or (and (and (and (and (and (and (and (and (and (= x_129 0) (= x_130 x_117)) (= ?v_91 x_107)) (<= (+ ?v_91 x_16) x_125)) (or ?v_94 (= x_131 x_112))) (= x_132 x_114)) (= x_133 x_115)) (= x_123 x_105)) ?v_92) ?v_93) (and (and (and (and (and (and (and (and (and (= x_129 1) (= x_133 x_114)) (= ?v_91 x_105)) (<= (+ ?v_91 x_17) x_123)) (or (and (and (= x_134 0) ?v_92) ?v_93) (and (and (= x_134 1) (= x_109 x_115)) (= x_127 (not x_109))))) (= x_135 x_117)) (= x_130 x_112)) (= x_136 x_118)) (= x_125 x_107)) ?v_94))) (or (or (and (and (and (= x_137 0) ?v_100) (or (not (<= x_104 ?v_96)) (= x_135 x_109))) ?v_97) (and (and (and (= x_137 1) ?v_95) (xor x_109 x_127)) (= x_122 ?v_101))) (and (and (and (= x_137 2) ?v_95) (= x_109 x_127)) ?v_97))) (or (or (and (and (and (= x_138 0) (not ?v_98)) (or (not (<= x_106 ?v_91)) (= x_132 x_113))) ?v_99) (and (and (and (= x_138 1) ?v_98) (xor x_113 x_131)) (= x_124 (+ ?v_91 x_30)))) (and (and (and (= x_138 2) ?v_98) (= x_113 x_131)) ?v_99))) (or (or (and (and (and (= x_139 0) ?v_100) (or (not (<= x_108 ?v_96)) (= x_136 x_110))) ?v_103) (and (and (and (= x_139 1) ?v_95) (not ?v_102)) (= x_126 ?v_101))) (and (and (and (= x_139 2) ?v_95) ?v_102) ?v_103))) (or (and (and (and (and (and (and (and (and (and (= x_111 0) (= x_112 x_99)) (= ?v_104 x_89)) (<= (+ ?v_104 x_16) x_107)) (or ?v_107 (= x_113 x_94))) (= x_114 x_96)) (= x_115 x_97)) (= x_105 x_87)) ?v_105) ?v_106) (and (and (and (and (and (and (and (and (and (= x_111 1) (= x_115 x_96)) (= ?v_104 x_87)) (<= (+ ?v_104 x_17) x_105)) (or (and (and (= x_116 0) ?v_105) ?v_106) (and (and (= x_116 1) (= x_91 x_97)) (= x_109 (not x_91))))) (= x_117 x_99)) (= x_112 x_94)) (= x_118 x_100)) (= x_107 x_89)) ?v_107))) (or (or (and (and (and (= x_119 0) ?v_113) (or (not (<= x_86 ?v_109)) (= x_117 x_91))) ?v_110) (and (and (and (= x_119 1) ?v_108) (xor x_91 x_109)) (= x_104 ?v_114))) (and (and (and (= x_119 2) ?v_108) (= x_91 x_109)) ?v_110))) (or (or (and (and (and (= x_120 0) (not ?v_111)) (or (not (<= x_88 ?v_104)) (= x_114 x_95))) ?v_112) (and (and (and (= x_120 1) ?v_111) (xor x_95 x_113)) (= x_106 (+ ?v_104 x_30)))) (and (and (and (= x_120 2) ?v_111) (= x_95 x_113)) ?v_112))) (or (or (and (and (and (= x_121 0) ?v_113) (or (not (<= x_90 ?v_109)) (= x_118 x_92))) ?v_116) (and (and (and (= x_121 1) ?v_108) (not ?v_115)) (= x_108 ?v_114))) (and (and (and (= x_121 2) ?v_108) ?v_115) ?v_116))) (or (and (and (and (and (and (and (and (and (and (= x_93 0) (= x_94 x_81)) (= ?v_117 x_71)) (<= (+ ?v_117 x_16) x_89)) (or ?v_120 (= x_95 x_76))) (= x_96 x_78)) (= x_97 x_79)) (= x_87 x_69)) ?v_118) ?v_119) (and (and (and (and (and (and (and (and (and (= x_93 1) (= x_97 x_78)) (= ?v_117 x_69)) (<= (+ ?v_117 x_17) x_87)) (or (and (and (= x_98 0) ?v_118) ?v_119) (and (and (= x_98 1) (= x_73 x_79)) (= x_91 (not x_73))))) (= x_99 x_81)) (= x_94 x_76)) (= x_100 x_82)) (= x_89 x_71)) ?v_120))) (or (or (and (and (and (= x_101 0) ?v_126) (or (not (<= x_68 ?v_122)) (= x_99 x_73))) ?v_123) (and (and (and (= x_101 1) ?v_121) (xor x_73 x_91)) (= x_86 ?v_127))) (and (and (and (= x_101 2) ?v_121) (= x_73 x_91)) ?v_123))) (or (or (and (and (and (= x_102 0) (not ?v_124)) (or (not (<= x_70 ?v_117)) (= x_96 x_77))) ?v_125) (and (and (and (= x_102 1) ?v_124) (xor x_77 x_95)) (= x_88 (+ ?v_117 x_30)))) (and (and (and (= x_102 2) ?v_124) (= x_77 x_95)) ?v_125))) (or (or (and (and (and (= x_103 0) ?v_126) (or (not (<= x_72 ?v_122)) (= x_100 x_74))) ?v_129) (and (and (and (= x_103 1) ?v_121) (not ?v_128)) (= x_90 ?v_127))) (and (and (and (= x_103 2) ?v_121) ?v_128) ?v_129))) (or (and (and (and (and (and (and (and (and (and (= x_75 0) (= x_76 x_63)) (= ?v_130 x_53)) (<= (+ ?v_130 x_16) x_71)) (or ?v_133 (= x_77 x_58))) (= x_78 x_60)) (= x_79 x_61)) (= x_69 x_51)) ?v_131) ?v_132) (and (and (and (and (and (and (and (and (and (= x_75 1) (= x_79 x_60)) (= ?v_130 x_51)) (<= (+ ?v_130 x_17) x_69)) (or (and (and (= x_80 0) ?v_131) ?v_132) (and (and (= x_80 1) (= x_55 x_61)) (= x_73 (not x_55))))) (= x_81 x_63)) (= x_76 x_58)) (= x_82 x_64)) (= x_71 x_53)) ?v_133))) (or (or (and (and (and (= x_83 0) ?v_139) (or (not (<= x_50 ?v_135)) (= x_81 x_55))) ?v_136) (and (and (and (= x_83 1) ?v_134) (xor x_55 x_73)) (= x_68 ?v_140))) (and (and (and (= x_83 2) ?v_134) (= x_55 x_73)) ?v_136))) (or (or (and (and (and (= x_84 0) (not ?v_137)) (or (not (<= x_52 ?v_130)) (= x_78 x_59))) ?v_138) (and (and (and (= x_84 1) ?v_137) (xor x_59 x_77)) (= x_70 (+ ?v_130 x_30)))) (and (and (and (= x_84 2) ?v_137) (= x_59 x_77)) ?v_138))) (or (or (and (and (and (= x_85 0) ?v_139) (or (not (<= x_54 ?v_135)) (= x_82 x_56))) ?v_142) (and (and (and (= x_85 1) ?v_134) (not ?v_141)) (= x_72 ?v_140))) (and (and (and (= x_85 2) ?v_134) ?v_141) ?v_142))) (or (and (and (and (and (and (and (and (and (and (= x_57 0) (= x_58 x_45)) (= ?v_143 x_35)) (<= (+ ?v_143 x_16) x_53)) (or ?v_146 (= x_59 x_40))) (= x_60 x_42)) (= x_61 x_43)) (= x_51 x_33)) ?v_144) ?v_145) (and (and (and (and (and (and (and (and (and (= x_57 1) (= x_61 x_42)) (= ?v_143 x_33)) (<= (+ ?v_143 x_17) x_51)) (or (and (and (= x_62 0) ?v_144) ?v_145) (and (and (= x_62 1) (= x_37 x_43)) (= x_55 (not x_37))))) (= x_63 x_45)) (= x_58 x_40)) (= x_64 x_46)) (= x_53 x_35)) ?v_146))) (or (or (and (and (and (= x_65 0) ?v_152) (or (not (<= x_32 ?v_148)) (= x_63 x_37))) ?v_149) (and (and (and (= x_65 1) ?v_147) (xor x_37 x_55)) (= x_50 ?v_153))) (and (and (and (= x_65 2) ?v_147) (= x_37 x_55)) ?v_149))) (or (or (and (and (and (= x_66 0) (not ?v_150)) (or (not (<= x_34 ?v_143)) (= x_60 x_41))) ?v_151) (and (and (and (= x_66 1) ?v_150) (xor x_41 x_59)) (= x_52 (+ ?v_143 x_30)))) (and (and (and (= x_66 2) ?v_150) (= x_41 x_59)) ?v_151))) (or (or (and (and (and (= x_67 0) ?v_152) (or (not (<= x_36 ?v_148)) (= x_64 x_38))) ?v_155) (and (and (and (= x_67 1) ?v_147) (not ?v_154)) (= x_54 ?v_153))) (and (and (and (= x_67 2) ?v_147) ?v_154) ?v_155))) (or (and (and (and (and (and (and (and (and (and (= x_39 0) (= x_40 x_25)) (= ?v_156 x_11)) (<= (+ ?v_156 x_16) x_35)) (or ?v_159 (= x_41 x_20))) (= x_42 x_22)) (= x_43 x_23)) (= x_33 x_9)) ?v_157) ?v_158) (and (and (and (and (and (and (and (and (and (= x_39 1) (= x_43 x_22)) (= ?v_156 x_9)) (<= (+ ?v_156 x_17) x_33)) (or (and (and (= x_44 0) ?v_157) ?v_158) (and (and (= x_44 1) (= x_13 x_23)) (= x_37 (not x_13))))) (= x_45 x_25)) (= x_40 x_20)) (= x_46 x_26)) (= x_35 x_11)) ?v_159))) (or (or (and (and (and (= x_47 0) ?v_165) (or (not (<= x_8 ?v_161)) (= x_45 x_13))) ?v_162) (and (and (and (= x_47 1) ?v_160) (xor x_13 x_37)) (= x_32 ?v_166))) (and (and (and (= x_47 2) ?v_160) (= x_13 x_37)) ?v_162))) (or (or (and (and (and (= x_48 0) (not ?v_163)) (or (not (<= x_10 ?v_156)) (= x_42 x_21))) ?v_164) (and (and (and (= x_48 1) ?v_163) (xor x_21 x_41)) (= x_34 (+ ?v_156 x_30)))) (and (and (and (= x_48 2) ?v_163) (= x_21 x_41)) ?v_164))) (or (or (and (and (and (= x_49 0) ?v_165) (or (not (<= x_12 ?v_161)) (= x_46 x_14))) ?v_168) (and (and (and (= x_49 1) ?v_160) (not ?v_167)) (= x_36 ?v_166))) (and (and (and (= x_49 2) ?v_160) ?v_167) ?v_168))) (or (and (and (and (and (and (and (and (and (and (= x_19 0) (= x_20 x_0)) (= ?v_169 x_2)) (<= (+ ?v_169 x_16) x_11)) (or ?v_173 (= x_21 x_1))) (= x_22 x_4)) (= x_23 x_5)) (= x_9 x_6)) ?v_170) ?v_171) (and (and (and (and (and (and (and (and (and (= x_19 1) (= x_23 x_4)) (= ?v_169 x_6)) (<= (+ ?v_169 x_17) x_9)) (or (and (and (= x_24 0) ?v_170) ?v_171) (and (and (= x_24 1) (= x_7 x_5)) (= x_13 ?v_172)))) (= x_25 x_0)) (= x_20 x_1)) (= x_26 x_27)) (= x_11 x_2)) ?v_173))) (or (or (and (and (and (= x_28 0) ?v_179) (or ?v_180 (= x_25 x_7))) ?v_176) (and (and (and (= x_28 1) ?v_174) (xor x_7 x_13)) (= x_8 ?v_181))) (and (and (and (= x_28 2) ?v_174) (= x_7 x_13)) ?v_176))) (or (or (and (and (and (= x_29 0) (not ?v_177)) (or (not (>= ?v_169 0)) (= x_22 x_3))) ?v_178) (and (and (and (= x_29 1) ?v_177) (xor x_3 x_21)) (= x_10 (+ ?v_169 x_30)))) (and (and (and (= x_29 2) ?v_177) (= x_3 x_21)) ?v_178))) (or (or (and (and (and (= x_31 0) ?v_179) (or ?v_180 (= x_26 x_15))) ?v_183) (and (and (and (= x_31 1) ?v_174) (not ?v_182)) (= x_12 ?v_181))) (and (and (and (= x_31 2) ?v_174) ?v_182) ?v_183))) (or (or (or (or (or (or (or (or (or (or (or (or (or (or (and (xor x_256 x_257) (not (= x_262 x_254))) (and (xor x_238 x_239) (not (= x_244 x_236)))) (and (xor x_220 x_221) (not (= x_226 x_218)))) (and (xor x_202 x_203) (not (= x_208 x_200)))) (and (xor x_184 x_185) (not (= x_190 x_182)))) (and (xor x_166 x_167) (not (= x_172 x_164)))) (and (xor x_148 x_149) (not (= x_154 x_146)))) (and (xor x_130 x_131) (not (= x_136 x_128)))) (and (xor x_112 x_113) (not (= x_118 x_110)))) (and (xor x_94 x_95) (not (= x_100 x_92)))) (and (xor x_76 x_77) (not (= x_82 x_74)))) (and (xor x_58 x_59) (not (= x_64 x_56)))) (and (xor x_40 x_41) (not (= x_46 x_38)))) (and (xor x_20 x_21) (not (= x_26 x_14)))) (and (xor x_1 x_3) (not (= x_27 x_15))))))))))))))))))))))
(check-sat)
(exit)
